letting n =  10
letting blocks =  [[1, 1], [1, 2], [1, 5], [1, 9], [2, 2], [2, 7], [2, 8], [3, 4], [3, 5], [3, 6], [3, 8], [3, 9], [3, 10], [4, 2], [4, 4], [5, 2], [5, 3], [5, 4], [5, 6], [6, 1], [6, 3], [6, 4], [6, 6], [6, 7], [6, 9], [7, 3], [7, 7], [7, 10], [8, 2], [8, 3], [8, 6], [8, 10], [9, 8], [9, 10], [10, 2], [10, 4], [10, 5], [10, 8], [10, 9], [10, 10]]
